(set-info :smt-lib-version 2.6)
(set-logic QF_FP)
(set-info :source |Random FP created by PyMPF|)
(set-info :license |https://www.gnu.org/licenses/gpl-3.0.html|)
(set-info :category random)
(set-info :status unsat)
(declare-const x Float32)
(assert (= x ((_ to_fp 8 24) #x3750FC28)))
;; x should be Float32(0x3750FC28 [Rational(1712005, 137438953472), 0.000012])

(declare-const y Float32)
(assert (= y (_ +zero 8 24)))
;; y should be Float32(+zero)

(declare-const z Float32)
(assert (= z (fp #b0 #b11101001 #b01101110101111100110101)))
;; z should be Float32(0x74B75F35 [Rational(116225751112894729091949252313088), 116225751112894729091949252313088.000000])

(declare-const result Float32)
(assert (= result (fp.fma RNA x y z)))
(assert (not (= result ((_ to_fp 8 24) #x74B75F35))))
(check-sat)
(exit)
